NAME : ClusterId_1001 
COMMENT : (Gillet and Johnson) 
TYPE : CVRP 
DIMENSION : 23 
EDGE_WEIGHT_TYPE : EUC_2D 
CAPACITY : 500 
NODE_COORD_SECTION 
1001 5248 1767 
48 4908 509 
783 4778 745 
608 4928 655 
3 4735 829 
677 4598 1091 
154 4435 1165 
119 4688 1227 
530 4610 1341 
626 5300 929 
992 5256 1005 
989 4693 1523 
418 4963 1651 
685 4681 1804 
863 5098 1582 
403 4966 1827 
205 4819 2057 
469 4822 2061 
111 4923 2196 
84 5592 2133 
775 5472 2409 
215 5576 2332 
43 5689 2326 
DEMAND_SECTION 
1001 1171
48 34
783 48
608 55
3 31
677 55
154 32
119 47
530 56
626 48
992 25
989 34
418 41
685 40
863 29
403 36
205 28
469 39
111 33
84 31
775 28
215 32
43 30
DEPOT_SECTION 
1001
 -1
EOF